data/solutions/planning/degenerate/moderate/weighting/degenerate_moderate_instance13_cplex.sol
Elapsed time: 101.62
Nodes explored: 1561627
Nodes left: 26451
Relative gap: 0.008
Upper bound: 6336778.0
Lower bound: 6336299
C[0]=422475.0
C[1]=422445.0
C[2]=422439.0
C[3]=422320.0
y[0]=1
y[1]=2
y[2]=1
y[3]=3
y[4]=1
y[5]=0
y[6]=0
y[7]=1
y[8]=3
y[9]=1
y[10]=3
y[11]=0
y[12]=0
y[13]=0
y[14]=1
y[15]=1
y[16]=3
y[17]=0
y[18]=2
y[19]=2
y[20]=0
y[21]=2
y[22]=2
y[23]=0
y[24]=3
