data/solutions/planning/degenerate/moderate/weighting/degenerate_moderate_instance13_cplex.log

Log started (V12.6.3.0) Mon Mar  5 10:13:37 2018

New value for default parallel thread count: 1

Problem '/tmp/tmplcczhw.pyomo.lp' read.
Read time = 0.00 sec. (0.01 ticks)

Problem name         : /tmp/tmplcczhw.pyomo.lp
Objective sense      : Minimize
Variables            :     105  [Nneg: 5,  Binary: 100]
Objective nonzeros   :       4
Linear constraints   :      33  [Less: 3,  Equal: 30]
  Nonzeros           :     211
  RHS nonzeros       :      26

Variables            : Min LB: 0.000000         Max UB: 1.000000       
Objective nonzeros   : Min   : 1.000000         Max   : 8.000000       
Linear constraints   :
  Nonzeros           : Min   : 1.000000         Max   : 125628.0       
  RHS nonzeros       : Min   : 1.000000         Max   : 1.000000       
Found incumbent of value 1.3517432e+07 after 0.00 sec. (0.01 ticks)
Tried aggregator 2 times.
MIP Presolve eliminated 1 rows and 1 columns.
Aggregator did 2 substitutions.
Reduced MIP has 30 rows, 102 columns, and 206 nonzeros.
Reduced MIP has 100 binaries, 0 generals, 0 SOSs, and 0 indicators.
Presolve time = 0.00 sec. (0.25 ticks)
Probing fixed 0 vars, tightened 8 bounds.
Probing time = 0.00 sec. (0.14 ticks)
Tried aggregator 1 time.
Reduced MIP has 30 rows, 102 columns, and 206 nonzeros.
Reduced MIP has 100 binaries, 2 generals, 0 SOSs, and 0 indicators.
Presolve time = 0.00 sec. (0.13 ticks)
Probing time = 0.00 sec. (0.08 ticks)
Clique table members: 25.
MIP emphasis: balance optimality and feasibility.
MIP search method: dynamic search.
Parallel mode: none, using 1 thread.
Root relaxation solution time = 0.00 sec. (0.12 ticks)

        Nodes                                         Cuts/
   Node  Left     Objective  IInf  Best Integer    Best Bound    ItCnt     Gap

*     0+    0                       1.35174e+07        0.0000           100.00%
      0     0  6336296.2500     8   1.35174e+07  6336296.2500       19   53.12%
      0     0  6336296.2500    13   1.35174e+07       Cuts: 5       28   53.12%
      0     0  6336296.2500    11   1.35174e+07     Covers: 1       31   53.12%
*     0+    0                      6528512.0000  6336296.2500             2.94%
      0     0  6336296.2500    10  6528512.0000       Cuts: 4       34    2.94%
*     0+    0                      6428053.0000  6336296.2500             1.43%
      0     2  6336296.2500    10  6428053.0000  6336296.2500       34    1.43%
Elapsed time = 0.01 sec. (3.60 ticks, tree = 0.01 MB, solutions = 3)
*    10+   10                      6397309.0000  6336296.2500             0.95%
*    46    29      integral     0  6364842.0000  6336296.2500      110    0.45%
*    47    28      integral     0  6361392.0000  6336296.2500      113    0.39%
*   110+   70                      6356708.0000  6336296.2500             0.32%
*   206   107      integral     0  6353768.0000  6336296.2500      414    0.27%
*   640+  245                      6353744.0000  6336296.2500             0.27%
*   740+  272                      6351203.0000  6336296.2500             0.23%
*   869   278      integral     0  6344846.0000  6336296.2500     1717    0.13%
*  1578+  516                      6343783.0000  6336296.2500             0.12%
*  1579+  509                      6342901.0000  6336296.2500             0.10%
   3081   362  6336299.0000     6  6342901.0000  6336299.0000     4809    0.10%
   3082   363  6336299.0000     6  6342901.0000  6336299.0000     4811    0.10%
   3083   363  6336299.0000     6  6342901.0000  6336299.0000     4812    0.10%
   3084   363  6336299.0000     6  6342901.0000  6336299.0000     4813    0.10%
   3085   362    infeasible        6342901.0000  6336299.0000     4813    0.10%
   3086   361    infeasible        6342901.0000  6336299.0000     4813    0.10%
   3087   362  6336299.0000     6  6342901.0000  6336299.0000     4814    0.10%
   3088   363  6336299.0000     6  6342901.0000  6336299.0000     4815    0.10%
   3089   364  6336299.0000     6  6342901.0000  6336299.0000     4816    0.10%
*  8820   489      integral     0  6340042.0000  6336299.0000    12439    0.06%
  12298   746  6336299.0000     6  6340042.0000  6336299.0000    18639    0.06%
Elapsed time = 1.65 sec. (957.32 ticks, tree = 0.22 MB, solutions = 14)
  36777  2937  6336299.0000     6  6340042.0000  6336299.0000    57701    0.06%
  36778  2936        cutoff        6340042.0000  6336299.0000    57705    0.06%
  36779  2936  6336299.0000     5  6340042.0000  6336299.0000    57714    0.06%
  36780  2935    infeasible        6340042.0000  6336299.0000    57716    0.06%
  36781  2934    infeasible        6340042.0000  6336299.0000    57716    0.06%
  36782  2934  6336299.0000     6  6340042.0000  6336299.0000    57719    0.06%
  36783  2933    infeasible        6340042.0000  6336299.0000    57719    0.06%
  36784  2934  6336299.0000     5  6340042.0000  6336299.0000    57721    0.06%
  36785  2935  6336299.0000     6  6340042.0000  6336299.0000    57722    0.06%
  36786  2936  6336299.0000     6  6340042.0000  6336299.0000    57723    0.06%
Elapsed time = 2.99 sec. (1911.70 ticks, tree = 0.89 MB, solutions = 14)
* 36794  1989      integral     0  6338917.0000  6336299.0000    57730    0.04%
  60325  2970  6336299.0000     6  6338917.0000  6336299.0000    98128    0.04%
  60326  2970  6336299.0000     6  6338917.0000  6336299.0000    98130    0.04%
  60327  2969        cutoff        6338917.0000  6336299.0000    98132    0.04%
  60328  2970  6336299.0000     6  6338917.0000  6336299.0000    98133    0.04%
  60329  2969        cutoff        6338917.0000  6336299.0000    98135    0.04%
  60330  2969  6336299.0000     6  6338917.0000  6336299.0000    98136    0.04%
  60331  2969  6336299.0000     6  6338917.0000  6336299.0000    98137    0.04%
  60332  2968        cutoff        6338917.0000  6336299.0000    98138    0.04%
  60333  2968  6336299.0000     6  6338917.0000  6336299.0000    98139    0.04%
  60334  2967        cutoff        6338917.0000  6336299.0000    98141    0.04%
Elapsed time = 4.39 sec. (2865.73 ticks, tree = 0.90 MB, solutions = 15)
  85757  5808    infeasible        6338917.0000  6336299.0000   139110    0.04%
  85758  5809  6336299.0000     6  6338917.0000  6336299.0000   139112    0.04%
  85759  5810  6336299.0000     6  6338917.0000  6336299.0000   139115    0.04%
  85760  5811  6336299.0000     6  6338917.0000  6336299.0000   139116    0.04%
  85761  5812  6336299.0000     6  6338917.0000  6336299.0000   139120    0.04%
  85762  5811    infeasible        6338917.0000  6336299.0000   139120    0.04%
  85763  5811  6336299.0000     6  6338917.0000  6336299.0000   139125    0.04%
  85764  5811  6337671.0000     4  6338917.0000  6336299.0000   139126    0.04%
  85765  5810        cutoff        6338917.0000  6336299.0000   139128    0.04%
  85766  5811  6336299.0000     6  6338917.0000  6336299.0000   139129    0.04%
Elapsed time = 5.73 sec. (3821.35 ticks, tree = 1.74 MB, solutions = 15)
* 89561  4822      integral     0  6338330.0000  6336299.0000   147283    0.03%
 102228  5325  6336299.0000     5  6338330.0000  6336299.0000   176610    0.03%
 102229  5326  6336299.0000     5  6338330.0000  6336299.0000   176611    0.03%
 102230  5327  6336299.0000     5  6338330.0000  6336299.0000   176613    0.03%
 102231  5326        cutoff        6338330.0000  6336299.0000   176615    0.03%
 102232  5326  6336299.0000     6  6338330.0000  6336299.0000   176617    0.03%
 102233  5325        cutoff        6338330.0000  6336299.0000   176619    0.03%
 102234  5326  6336299.0000     6  6338330.0000  6336299.0000   176623    0.03%
 102235  5326  6336299.0000     6  6338330.0000  6336299.0000   176626    0.03%
 102236  5326  6336299.0000     6  6338330.0000  6336299.0000   176627    0.03%
 102237  5325    infeasible        6338330.0000  6336299.0000   176627    0.03%
Elapsed time = 7.12 sec. (4775.49 ticks, tree = 1.61 MB, solutions = 16)
 122256  5682  6336299.0000     6  6338330.0000  6336299.0000   216595    0.03%
 122257  5683  6336299.0000     6  6338330.0000  6336299.0000   216596    0.03%
 122258  5684  6336299.0000     6  6338330.0000  6336299.0000   216598    0.03%
 122259  5684  6336299.0000     6  6338330.0000  6336299.0000   216599    0.03%
 122260  5684  6336299.0000     6  6338330.0000  6336299.0000   216600    0.03%
 122261  5685  6336299.0000     6  6338330.0000  6336299.0000   216603    0.03%
 122262  5684    infeasible        6338330.0000  6336299.0000   216603    0.03%
 122263  5683    infeasible        6338330.0000  6336299.0000   216603    0.03%
 122264  5683  6336299.0000     6  6338330.0000  6336299.0000   216605    0.03%
 122265  5683  6336299.0000     6  6338330.0000  6336299.0000   216606    0.03%
Elapsed time = 8.55 sec. (5729.70 ticks, tree = 1.71 MB, solutions = 16)
 143796  6014  6336299.0000     5  6338330.0000  6336299.0000   259849    0.03%
 143797  6015  6336299.0000     6  6338330.0000  6336299.0000   259851    0.03%
 143798  6016  6336299.0000     5  6338330.0000  6336299.0000   259853    0.03%
 143799  6017  6336299.0000     6  6338330.0000  6336299.0000   259857    0.03%
 143800  6016    infeasible        6338330.0000  6336299.0000   259866    0.03%
 143801  6017  6336299.0000     5  6338330.0000  6336299.0000   259880    0.03%
 143802  6016    infeasible        6338330.0000  6336299.0000   259882    0.03%
 143803  6015    infeasible        6338330.0000  6336299.0000   259884    0.03%
 143804  6016  6336299.0000     5  6338330.0000  6336299.0000   259886    0.03%
 143805  6015    infeasible        6338330.0000  6336299.0000   259896    0.03%
Elapsed time = 10.00 sec. (6683.87 ticks, tree = 1.80 MB, solutions = 16)
*160618  3931      integral     0  6337655.0000  6336299.0000   294322    0.02%
 165078  4041        cutoff        6337655.0000  6336299.0000   303090    0.02%
 165079  4042  6336299.0000     6  6337655.0000  6336299.0000   303092    0.02%
 165080  4043  6336299.0000     6  6337655.0000  6336299.0000   303093    0.02%
 165081  4044  6336299.0000     6  6337655.0000  6336299.0000   303094    0.02%
 165082  4045  6336299.0000     6  6337655.0000  6336299.0000   303095    0.02%
 165083  4046  6336299.0000     6  6337655.0000  6336299.0000   303096    0.02%
 165084  4047  6336299.0000     6  6337655.0000  6336299.0000   303097    0.02%
 165085  4046        cutoff        6337655.0000  6336299.0000   303098    0.02%
 165086  4045        cutoff        6337655.0000  6336299.0000   303102    0.02%
 165087  4046  6336299.0000     6  6337655.0000  6336299.0000   303104    0.02%
Elapsed time = 11.45 sec. (7638.12 ticks, tree = 1.28 MB, solutions = 17)
 185878  5022  6336299.0000     6  6337655.0000  6336299.0000   342713    0.02%
 185879  5023  6336299.0000     6  6337655.0000  6336299.0000   342715    0.02%
 185880  5024  6336299.0000     6  6337655.0000  6336299.0000   342716    0.02%
 185881  5025  6336299.0000     6  6337655.0000  6336299.0000   342717    0.02%
 185882  5024    infeasible        6337655.0000  6336299.0000   342717    0.02%
 185883  5025  6336299.0000     6  6337655.0000  6336299.0000   342719    0.02%
 185884  5025  6336299.0000     6  6337655.0000  6336299.0000   342723    0.02%
 185885  5024    infeasible        6337655.0000  6336299.0000   342723    0.02%
 185886  5023    infeasible        6337655.0000  6336299.0000   342723    0.02%
 185887  5022    infeasible        6337655.0000  6336299.0000   342723    0.02%
Elapsed time = 12.88 sec. (8592.09 ticks, tree = 1.52 MB, solutions = 17)
 208715  5791  6336299.0000     6  6337655.0000  6336299.0000   386595    0.02%
 208716  5792  6336299.0000     6  6337655.0000  6336299.0000   386596    0.02%
 208717  5793  6336299.0000     6  6337655.0000  6336299.0000   386597    0.02%
 208718  5792    infeasible        6337655.0000  6336299.0000   386597    0.02%
 208719  5793  6336299.0000     6  6337655.0000  6336299.0000   386598    0.02%
 208720  5794  6336299.0000     6  6337655.0000  6336299.0000   386599    0.02%
 208721  5795  6336299.0000     6  6337655.0000  6336299.0000   386600    0.02%
 208722  5796  6336299.0000     6  6337655.0000  6336299.0000   386601    0.02%
 208723  5795        cutoff        6337655.0000  6336299.0000   386603    0.02%
 275307  6205        cutoff        6337655.0000  6336299.0000   522691    0.02%
Elapsed time = 18.84 sec. (12406.82 ticks, tree = 1.83 MB, solutions = 17)
 355311  6977  6336299.0000     6  6337655.0000  6336299.0000   683142    0.02%
 355312  6976        cutoff        6337655.0000  6336299.0000   683144    0.02%
 355313  6975    infeasible        6337655.0000  6336299.0000   683150    0.02%
 355314  6974    infeasible        6337655.0000  6336299.0000   683150    0.02%
 355315  6973        cutoff        6337655.0000  6336299.0000   683159    0.02%
 355316  6972    infeasible        6337655.0000  6336299.0000   683159    0.02%
 355317  6971    infeasible        6337655.0000  6336299.0000   683159    0.02%
 355318  6972  6336299.0000     6  6337655.0000  6336299.0000   683162    0.02%
 355319  6971        cutoff        6337655.0000  6336299.0000   683163    0.02%
 355320  6970    infeasible        6337655.0000  6336299.0000   683163    0.02%
Elapsed time = 24.66 sec. (16221.96 ticks, tree = 2.03 MB, solutions = 17)
 442383  9871  6336299.0000     6  6337655.0000  6336299.0000   858235    0.02%
 442384  9872  6336299.0000     6  6337655.0000  6336299.0000   858236    0.02%
 442385  9873  6336299.0000     6  6337655.0000  6336299.0000   858237    0.02%
 442386  9874  6336299.0000     6  6337655.0000  6336299.0000   858239    0.02%
 442387  9875  6336299.0000     6  6337655.0000  6336299.0000   858243    0.02%
 442388  9876  6336299.0000     6  6337655.0000  6336299.0000   858248    0.02%
 442389  9875        cutoff        6337655.0000  6336299.0000   858249    0.02%
 442390  9874    infeasible        6337655.0000  6336299.0000   858256    0.02%
 442391  9875  6336299.0000     6  6337655.0000  6336299.0000   858259    0.02%
 442392  9876  6336299.0000     6  6337655.0000  6336299.0000   858260    0.02%
Elapsed time = 30.58 sec. (20037.02 ticks, tree = 2.98 MB, solutions = 17)
*475581+10210                      6337319.0000  6336299.0000             0.02%
 527993 10499  6336299.0000     6  6337319.0000  6336299.0000  1030253    0.02%
 527994 10498        cutoff        6337319.0000  6336299.0000  1030255    0.02%
 527995 10499  6336299.0000     6  6337319.0000  6336299.0000  1030257    0.02%
 527996 10499  6336299.0000     6  6337319.0000  6336299.0000  1030258    0.02%
 527997 10498        cutoff        6337319.0000  6336299.0000  1030259    0.02%
 527998 10497        cutoff        6337319.0000  6336299.0000  1030263    0.02%
 527999 10496    infeasible        6337319.0000  6336299.0000  1030263    0.02%
 528000 10497  6336299.0000     6  6337319.0000  6336299.0000  1030264    0.02%
 528001 10498  6336299.0000     6  6337319.0000  6336299.0000  1030267    0.02%
 528002 10499  6336299.0000     6  6337319.0000  6336299.0000  1030268    0.02%
Elapsed time = 36.87 sec. (23852.08 ticks, tree = 3.12 MB, solutions = 18)
 622219 11084        cutoff        6337319.0000  6336299.0000  1203919    0.02%
 622220 11084  6336299.0000     6  6337319.0000  6336299.0000  1203921    0.02%
 622221 11084  6336299.0000     6  6337319.0000  6336299.0000  1203923    0.02%
 622222 11084  6336299.0000     6  6337319.0000  6336299.0000  1203924    0.02%
 622223 11084  6336299.0000     6  6337319.0000  6336299.0000  1203925    0.02%
 622224 11083        cutoff        6337319.0000  6336299.0000  1203926    0.02%
 622225 11083  6336299.0000     6  6337319.0000  6336299.0000  1203927    0.02%
 622226 11083  6336299.0000     6  6337319.0000  6336299.0000  1203928    0.02%
 622227 11082        cutoff        6337319.0000  6336299.0000  1203929    0.02%
 622228 11082  6336299.0000     6  6337319.0000  6336299.0000  1203931    0.02%
Elapsed time = 42.95 sec. (27667.16 ticks, tree = 3.29 MB, solutions = 18)
 714222 12245  6336299.0000     6  6337319.0000  6336299.0000  1355507    0.02%
 714223 12245  6336299.0000     6  6337319.0000  6336299.0000  1355508    0.02%
 714224 12244        cutoff        6337319.0000  6336299.0000  1355510    0.02%
 714225 12245  6336299.0000     6  6337319.0000  6336299.0000  1355511    0.02%
 714226 12246  6336299.0000     6  6337319.0000  6336299.0000  1355513    0.02%
 714227 12247  6336299.0000     6  6337319.0000  6336299.0000  1355515    0.02%
 714228 12246        cutoff        6337319.0000  6336299.0000  1355516    0.02%
 714229 12246  6336299.0000     6  6337319.0000  6336299.0000  1355520    0.02%
 714230 12245        cutoff        6337319.0000  6336299.0000  1355522    0.02%
 714231 12246  6336299.0000     5  6337319.0000  6336299.0000  1355523    0.02%
Elapsed time = 48.80 sec. (31482.38 ticks, tree = 3.60 MB, solutions = 18)
 812112 16900  6336299.0000     4  6337319.0000  6336299.0000  1504073    0.02%
 812113 16901  6336299.0000     4  6337319.0000  6336299.0000  1504076    0.02%
 812114 16900    infeasible        6337319.0000  6336299.0000  1504076    0.02%
 812115 16899        cutoff        6337319.0000  6336299.0000  1504079    0.02%
 812116 16900  6336299.0000     3  6337319.0000  6336299.0000  1504086    0.02%
 812117 16899    infeasible        6337319.0000  6336299.0000  1504086    0.02%
 812118 16898    infeasible        6337319.0000  6336299.0000  1504086    0.02%
 812119 16899  6336299.0000     4  6337319.0000  6336299.0000  1504090    0.02%
 812120 16898    infeasible        6337319.0000  6336299.0000  1504090    0.02%
 812121 16897    infeasible        6337319.0000  6336299.0000  1504090    0.02%
Elapsed time = 54.73 sec. (35297.37 ticks, tree = 5.23 MB, solutions = 18)
*851381+17620                      6337193.0000  6336299.0000             0.01%
 906318 20340  6336299.0000     6  6337193.0000  6336299.0000  1656884    0.01%
 906319 20339        cutoff        6337193.0000  6336299.0000  1656885    0.01%
 906320 20339  6336299.0000     6  6337193.0000  6336299.0000  1656887    0.01%
 906321 20339  6336299.0000     6  6337193.0000  6336299.0000  1656889    0.01%
 906322 20339  6336299.0000     6  6337193.0000  6336299.0000  1656890    0.01%
 906323 20339  6336299.0000     6  6337193.0000  6336299.0000  1656891    0.01%
 906324 20338    infeasible        6337193.0000  6336299.0000  1656891    0.01%
 906325 20338  6336299.0000     6  6337193.0000  6336299.0000  1656892    0.01%
 906326 20337        cutoff        6337193.0000  6336299.0000  1656895    0.01%
 906327 20336        cutoff        6337193.0000  6336299.0000  1656897    0.01%
Elapsed time = 60.76 sec. (39112.46 ticks, tree = 6.03 MB, solutions = 19)
 1006153 21988  6336299.0000     6  6337193.0000  6336299.0000  1813862    0.01%
 1006154 21989  6336299.0000     6  6337193.0000  6336299.0000  1813865    0.01%
 1006155 21988        cutoff        6337193.0000  6336299.0000  1813866    0.01%
 1006156 21989  6336299.0000     6  6337193.0000  6336299.0000  1813867    0.01%
 1006157 21988        cutoff        6337193.0000  6336299.0000  1813869    0.01%
 1006158 21988  6336299.0000     6  6337193.0000  6336299.0000  1813870    0.01%
 1006159 21987        cutoff        6337193.0000  6336299.0000  1813871    0.01%
 1006160 21987  6336299.0000     6  6337193.0000  6336299.0000  1813873    0.01%
 1006161 21988  6336299.0000     6  6337193.0000  6336299.0000  1813875    0.01%
 1006162 21988  6336299.0000     6  6337193.0000  6336299.0000  1813876    0.01%
Elapsed time = 66.82 sec. (42927.54 ticks, tree = 6.48 MB, solutions = 19)
 1109277 25461  6336299.0000     6  6337193.0000  6336299.0000  1966742    0.01%
 1109278 25461  6336299.0000     6  6337193.0000  6336299.0000  1966744    0.01%
 1109279 25462  6337062.0000     4  6337193.0000  6336299.0000  1966745    0.01%
 1109280 25463  6337062.0000     4  6337193.0000  6336299.0000  1966747    0.01%
 1109281 25464  6337062.0000     4  6337193.0000  6336299.0000  1966749    0.01%
 1109282 25465  6337062.0000     4  6337193.0000  6336299.0000  1966751    0.01%
 1109283 25466  6337062.0000     4  6337193.0000  6336299.0000  1966753    0.01%
 1109284 25467  6337062.0000     4  6337193.0000  6336299.0000  1966754    0.01%
 1109285 25468  6337062.0000     4  6337193.0000  6336299.0000  1966756    0.01%
 1109286 25469  6337062.0000     4  6337193.0000  6336299.0000  1966757    0.01%
Elapsed time = 73.09 sec. (46742.57 ticks, tree = 7.36 MB, solutions = 19)
 1204306 28903  6336299.0000     6  6337193.0000  6336299.0000  2112754    0.01%
 1204307 28902    infeasible        6337193.0000  6336299.0000  2112754    0.01%
 1204308 28903  6336299.0000     6  6337193.0000  6336299.0000  2112755    0.01%
 1204309 28902        cutoff        6337193.0000  6336299.0000  2112757    0.01%
 1204310 28903  6336299.0000     6  6337193.0000  6336299.0000  2112758    0.01%
 1204311 28902    infeasible        6337193.0000  6336299.0000  2112758    0.01%
 1204312 28903  6336299.0000     6  6337193.0000  6336299.0000  2112759    0.01%
 1204313 28903  6336299.0000     6  6337193.0000  6336299.0000  2112760    0.01%
 1204314 28902        cutoff        6337193.0000  6336299.0000  2112762    0.01%
 1204315 28902  6336299.0000     6  6337193.0000  6336299.0000  2112763    0.01%
Elapsed time = 79.22 sec. (50557.68 ticks, tree = 8.21 MB, solutions = 19)
 1301514 33502  6336299.0000     6  6337193.0000  6336299.0000  2258322    0.01%
 1301515 33501        cutoff        6337193.0000  6336299.0000  2258323    0.01%
 1301516 33500        cutoff        6337193.0000  6336299.0000  2258330    0.01%
 1301517 33501  6336299.0000     6  6337193.0000  6336299.0000  2258331    0.01%
 1301518 33500        cutoff        6337193.0000  6336299.0000  2258332    0.01%
 1301519 33500  6336299.0000     6  6337193.0000  6336299.0000  2258333    0.01%
 1301520 33499        cutoff        6337193.0000  6336299.0000  2258335    0.01%
 1301521 33500  6336299.0000     6  6337193.0000  6336299.0000  2258336    0.01%
 1301522 33500  6336299.0000     6  6337193.0000  6336299.0000  2258337    0.01%
 1301523 33499        cutoff        6337193.0000  6336299.0000  2258339    0.01%
Elapsed time = 85.33 sec. (54373.05 ticks, tree = 10.30 MB, solutions = 19)
 1394172 35763  6336299.0000     5  6337193.0000  6336299.0000  2416725    0.01%
 1394173 35762        cutoff        6337193.0000  6336299.0000  2416726    0.01%
 1394174 35762  6336299.0000     6  6337193.0000  6336299.0000  2416727    0.01%
 1394175 35761        cutoff        6337193.0000  6336299.0000  2416728    0.01%
 1394176 35761  6336299.0000     6  6337193.0000  6336299.0000  2416729    0.01%
 1394177 35762  6336299.0000     6  6337193.0000  6336299.0000  2416732    0.01%
 1394178 35763  6336299.0000     6  6337193.0000  6336299.0000  2416733    0.01%
 1394179 35764  6336299.0000     6  6337193.0000  6336299.0000  2416734    0.01%
 1394180 35764  6336299.0000     6  6337193.0000  6336299.0000  2416735    0.01%
 1394181 35763        cutoff        6337193.0000  6336299.0000  2416736    0.01%
Elapsed time = 91.30 sec. (58188.12 ticks, tree = 10.87 MB, solutions = 19)
 1498811 39157        cutoff        6337193.0000  6336299.0000  2583646    0.01%
 1498812 39156        cutoff        6337193.0000  6336299.0000  2583648    0.01%
 1498813 39155        cutoff        6337193.0000  6336299.0000  2583650    0.01%
 1498814 39156  6336299.0000     6  6337193.0000  6336299.0000  2583651    0.01%
 1498815 39156  6336299.0000     6  6337193.0000  6336299.0000  2583652    0.01%
 1498816 39156  6336299.0000     6  6337193.0000  6336299.0000  2583653    0.01%
 1498817 39156  6336299.0000     6  6337193.0000  6336299.0000  2583654    0.01%
 1498818 39155        cutoff        6337193.0000  6336299.0000  2583655    0.01%
 1498819 39155  6336299.0000     6  6337193.0000  6336299.0000  2583656    0.01%
 1498820 39154        cutoff        6337193.0000  6336299.0000  2583657    0.01%
Elapsed time = 97.76 sec. (62003.12 ticks, tree = 11.72 MB, solutions = 19)
*1561626 26451      integral     0  6336778.0000  6336299.0000  2681339    0.01%

Mixed integer rounding cuts applied:  1

Root node processing (before b&c):
  Real time             =    0.01 sec. (3.61 ticks)
Sequential b&c:
  Real time             =  101.58 sec. (64415.18 ticks)
                          ------------
Total (root+branch&cut) =  101.59 sec. (64418.79 ticks)

Solution pool: 20 solutions saved.

MIP - Integer optimal, tolerance (0.0001/1e-06):  Objective =  6.3367780000e+06
Current MIP best bound =  6.3362990000e+06 (gap = 479, 0.01%)
Solution time =  101.59 sec.  Iterations = 2681339  Nodes = 1561627 (26451)
Deterministic time = 64418.79 ticks  (634.09 ticks/sec)


Incumbent solution written to file '/tmp/tmpb94C3d.cplex.sol'.
